(set-logic ALL)
(declare-const template String)
(declare-const subdir String)
(assert (not (< (str.len template) 0)))
(assert (str.prefixof "file://" template))
(assert (not (< (str.len template) 0)))
(assert (not (< (str.len (str.substr template 7 (- (str.len template) 7))) 0)))
(assert (not (str.prefixof "~" (str.substr template 7 (- (str.len template) 7)))))
(assert (not (= (str.substr template 7 (- (str.len template) 7)) "")))
(assert (not (< (str.len (str.substr template 7 (- (str.len template) 7))) 0)))
(assert (str.prefixof "/" (str.substr template 7 (- (str.len template) 7))))
(assert (not (< (str.len (str.substr template 7 (- (str.len template) 7))) 0)))
(assert (not (str.prefixof "//" (str.substr template 7 (- (str.len template) 7)))))
(assert (not (< (str.len (str.substr template 7 (- (str.len template) 7))) 0)))
(assert (not (= (+ 0 (str.indexof (str.substr template 7 (- (str.len template) 7)) "/" 0)) (- 1))))
(assert (not (< (+ 0 (str.indexof (str.substr template 7 (- (str.len template) 7)) "/" 0)) 0)))
(assert (not (< (+ (+ 0 (str.indexof (str.substr template 7 (- (str.len template) 7)) "/" 0)) 1) 0)))
(assert (not (< (str.len (str.substr template 7 (- (str.len template) 7))) 0)))
(assert (not (< (str.len (str.substr (str.substr template 7 (- (str.len template) 7)) (+ (+ 0 (str.indexof (str.substr template 7 (- (str.len template) 7)) "/" 0)) 1) (- (str.len (str.substr template 7 (- (str.len template) 7))) (+ (+ 0 (str.indexof (str.substr template 7 (- (str.len template) 7)) "/" 0)) 1)))) 0)))
(assert (not (= (+ 0 (str.indexof (str.substr (str.substr template 7 (- (str.len template) 7)) (+ (+ 0 (str.indexof (str.substr template 7 (- (str.len template) 7)) "/" 0)) 1) (- (str.len (str.substr template 7 (- (str.len template) 7))) (+ (+ 0 (str.indexof (str.substr template 7 (- (str.len template) 7)) "/" 0)) 1))) "/" 0)) (- 1))))
(assert (not (< (+ 0 (str.indexof (str.substr (str.substr template 7 (- (str.len template) 7)) (+ (+ 0 (str.indexof (str.substr template 7 (- (str.len template) 7)) "/" 0)) 1) (- (str.len (str.substr template 7 (- (str.len template) 7))) (+ (+ 0 (str.indexof (str.substr template 7 (- (str.len template) 7)) "/" 0)) 1))) "/" 0)) 0)))
(assert (not (< (+ (+ 0 (str.indexof (str.substr (str.substr template 7 (- (str.len template) 7)) (+ (+ 0 (str.indexof (str.substr template 7 (- (str.len template) 7)) "/" 0)) 1) (- (str.len (str.substr template 7 (- (str.len template) 7))) (+ (+ 0 (str.indexof (str.substr template 7 (- (str.len template) 7)) "/" 0)) 1))) "/" 0)) 1) 0)))
(assert (not (< (str.len (str.substr (str.substr template 7 (- (str.len template) 7)) (+ (+ 0 (str.indexof (str.substr template 7 (- (str.len template) 7)) "/" 0)) 1) (- (str.len (str.substr template 7 (- (str.len template) 7))) (+ (+ 0 (str.indexof (str.substr template 7 (- (str.len template) 7)) "/" 0)) 1)))) 0)))
(assert (not (< (str.len (str.substr (str.substr (str.substr template 7 (- (str.len template) 7)) (+ (+ 0 (str.indexof (str.substr template 7 (- (str.len template) 7)) "/" 0)) 1) (- (str.len (str.substr template 7 (- (str.len template) 7))) (+ (+ 0 (str.indexof (str.substr template 7 (- (str.len template) 7)) "/" 0)) 1))) (+ (+ 0 (str.indexof (str.substr (str.substr template 7 (- (str.len template) 7)) (+ (+ 0 (str.indexof (str.substr template 7 (- (str.len template) 7)) "/" 0)) 1) (- (str.len (str.substr template 7 (- (str.len template) 7))) (+ (+ 0 (str.indexof (str.substr template 7 (- (str.len template) 7)) "/" 0)) 1))) "/" 0)) 1) (- (str.len (str.substr (str.substr template 7 (- (str.len template) 7)) (+ (+ 0 (str.indexof (str.substr template 7 (- (str.len template) 7)) "/" 0)) 1) (- (str.len (str.substr template 7 (- (str.len template) 7))) (+ (+ 0 (str.indexof (str.substr template 7 (- (str.len template) 7)) "/" 0)) 1)))) (+ (+ 0 (str.indexof (str.substr (str.substr template 7 (- (str.len template) 7)) (+ (+ 0 (str.indexof (str.substr template 7 (- (str.len template) 7)) "/" 0)) 1) (- (str.len (str.substr template 7 (- (str.len template) 7))) (+ (+ 0 (str.indexof (str.substr template 7 (- (str.len template) 7)) "/" 0)) 1))) "/" 0)) 1)))) 0)))
(assert (= (+ 0 (str.indexof (str.substr (str.substr (str.substr template 7 (- (str.len template) 7)) (+ (+ 0 (str.indexof (str.substr template 7 (- (str.len template) 7)) "/" 0)) 1) (- (str.len (str.substr template 7 (- (str.len template) 7))) (+ (+ 0 (str.indexof (str.substr template 7 (- (str.len template) 7)) "/" 0)) 1))) (+ (+ 0 (str.indexof (str.substr (str.substr template 7 (- (str.len template) 7)) (+ (+ 0 (str.indexof (str.substr template 7 (- (str.len template) 7)) "/" 0)) 1) (- (str.len (str.substr template 7 (- (str.len template) 7))) (+ (+ 0 (str.indexof (str.substr template 7 (- (str.len template) 7)) "/" 0)) 1))) "/" 0)) 1) (- (str.len (str.substr (str.substr template 7 (- (str.len template) 7)) (+ (+ 0 (str.indexof (str.substr template 7 (- (str.len template) 7)) "/" 0)) 1) (- (str.len (str.substr template 7 (- (str.len template) 7))) (+ (+ 0 (str.indexof (str.substr template 7 (- (str.len template) 7)) "/" 0)) 1)))) (+ (+ 0 (str.indexof (str.substr (str.substr template 7 (- (str.len template) 7)) (+ (+ 0 (str.indexof (str.substr template 7 (- (str.len template) 7)) "/" 0)) 1) (- (str.len (str.substr template 7 (- (str.len template) 7))) (+ (+ 0 (str.indexof (str.substr template 7 (- (str.len template) 7)) "/" 0)) 1))) "/" 0)) 1))) "/" 0)) (- 1)))
(assert (= (str.substr (str.substr template 7 (- (str.len template) 7)) 0 (- (+ 0 (str.indexof (str.substr template 7 (- (str.len template) 7)) "/" 0)) 0)) ""))
(assert (not (= (str.substr (str.substr (str.substr template 7 (- (str.len template) 7)) (+ (+ 0 (str.indexof (str.substr template 7 (- (str.len template) 7)) "/" 0)) 1) (- (str.len (str.substr template 7 (- (str.len template) 7))) (+ (+ 0 (str.indexof (str.substr template 7 (- (str.len template) 7)) "/" 0)) 1))) 0 (- (+ 0 (str.indexof (str.substr (str.substr template 7 (- (str.len template) 7)) (+ (+ 0 (str.indexof (str.substr template 7 (- (str.len template) 7)) "/" 0)) 1) (- (str.len (str.substr template 7 (- (str.len template) 7))) (+ (+ 0 (str.indexof (str.substr template 7 (- (str.len template) 7)) "/" 0)) 1))) "/" 0)) 0)) "")))
(assert (not (= (str.substr (str.substr (str.substr template 7 (- (str.len template) 7)) (+ (+ 0 (str.indexof (str.substr template 7 (- (str.len template) 7)) "/" 0)) 1) (- (str.len (str.substr template 7 (- (str.len template) 7))) (+ (+ 0 (str.indexof (str.substr template 7 (- (str.len template) 7)) "/" 0)) 1))) 0 (- (+ 0 (str.indexof (str.substr (str.substr template 7 (- (str.len template) 7)) (+ (+ 0 (str.indexof (str.substr template 7 (- (str.len template) 7)) "/" 0)) 1) (- (str.len (str.substr template 7 (- (str.len template) 7))) (+ (+ 0 (str.indexof (str.substr template 7 (- (str.len template) 7)) "/" 0)) 1))) "/" 0)) 0)) ".")))
(assert (not (not (= (str.substr (str.substr (str.substr template 7 (- (str.len template) 7)) (+ (+ 0 (str.indexof (str.substr template 7 (- (str.len template) 7)) "/" 0)) 1) (- (str.len (str.substr template 7 (- (str.len template) 7))) (+ (+ 0 (str.indexof (str.substr template 7 (- (str.len template) 7)) "/" 0)) 1))) 0 (- (+ 0 (str.indexof (str.substr (str.substr template 7 (- (str.len template) 7)) (+ (+ 0 (str.indexof (str.substr template 7 (- (str.len template) 7)) "/" 0)) 1) (- (str.len (str.substr template 7 (- (str.len template) 7))) (+ (+ 0 (str.indexof (str.substr template 7 (- (str.len template) 7)) "/" 0)) 1))) "/" 0)) 0)) ".."))))
(assert (not (str.prefixof "/" (str.substr template 7 (- (str.len template) 7)))))
(check-sat)
(get-value (template))
(get-value (subdir))
